20	5
0	9	1	4	8	9	6	2	3	7	5
1	1	10
2	2	11	16
3	3	14	15	20
4	5	16	13	12	18	17
5	2	13	18
6	1	18
7	2	10	17
8	2	12	15
9	1	14
10	1	20
11	0
12	2	20	19
13	1	21
14	1	21
15	1	21
16	1	21
17	1	21
18	1	21
19	1	21
20	1	21
21	0
0	0	0	0	0	0	0
1	6	1	4	0	0	4
2	1	4	0	0	0	0
3	1	3	0	4	0	0
4	10	3	0	0	3	5
5	8	0	0	0	5	5
6	7	0	1	5	3	0
7	9	0	5	0	1	4
8	5	0	0	4	4	5
9	3	0	0	2	0	0
10	3	3	2	2	3	0
11	5	0	5	3	2	1
12	5	2	4	5	4	0
13	5	3	0	0	0	1
14	4	0	4	1	4	0
15	1	5	3	0	0	0
16	4	5	0	0	3	0
17	5	0	0	3	0	3
18	9	0	0	0	5	2
19	2	0	0	5	3	0
20	4	0	0	0	5	5
21	0	0	0	0	0	0
7	10	10	12	15
